(set-logic QF_LRA)
(declare-fun T1 () Real )
(declare-fun T2 () Real )
(declare-fun T3 () Real )
(declare-fun T4 () Real )
(declare-fun T5 () Real )
(declare-fun T6 () Real )
(declare-fun T7 () Real )
(declare-fun T8 () Real )
(declare-fun Z () Real )
(declare-fun k () Real )
(assert (let
(( $goal (>= Z k) ))
(let
((
$phi ( and 
(or ( <= ( + T1 79 ) T2 ) ( <= ( + T2 99 ) T1 ) )
(or ( <= ( + T1 176 )  ( + T2 99 ) ) ( <= ( + T2 133 )( + T1 79 ) ) )
(or ( <= ( + T1 239 )  ( + T2 133 ) ) ( <= ( + T2 230 )( + T1 176 ) ) )
(or ( <= ( + T1 297 )  ( + T2 230 ) ) ( <= ( + T2 256 )( + T1 239 ) ) )
(or ( <= ( + T1 376 )  ( + T2 256 ) ) ( <= ( + T2 325 )( + T1 297 ) ) )
(or ( <= ( + T1 459 )  ( + T2 325 ) ) ( <= ( + T2 362 )( + T1 376 ) ) )
(or ( <= ( + T1 79 ) T3 ) ( <= ( + T3 86 ) T1 ) )
(or ( <= ( + T1 176 )  ( + T3 86 ) ) ( <= ( + T3 149 )( + T1 79 ) ) )
(or ( <= ( + T1 239 )  ( + T3 149 ) ) ( <= ( + T3 186 )( + T1 176 ) ) )
(or ( <= ( + T1 297 )  ( + T3 186 ) ) ( <= ( + T3 252 )( + T1 239 ) ) )
(or ( <= ( + T1 376 )  ( + T3 252 ) ) ( <= ( + T3 295 )( + T1 297 ) ) )
(or ( <= ( + T1 459 )  ( + T3 295 ) ) ( <= ( + T3 388 )( + T1 376 ) ) )
(or ( <= ( + T1 79 ) T4 ) ( <= ( + T4 37 ) T1 ) )
(or ( <= ( + T1 176 )  ( + T4 37 ) ) ( <= ( + T4 90 )( + T1 79 ) ) )
(or ( <= ( + T1 239 )  ( + T4 90 ) ) ( <= ( + T4 146 )( + T1 176 ) ) )
(or ( <= ( + T1 297 )  ( + T4 146 ) ) ( <= ( + T4 148 )( + T1 239 ) ) )
(or ( <= ( + T1 376 )  ( + T4 148 ) ) ( <= ( + T4 171 )( + T1 297 ) ) )
(or ( <= ( + T1 459 )  ( + T4 171 ) ) ( <= ( + T4 216 )( + T1 376 ) ) )
(or ( <= ( + T1 79 ) T5 ) ( <= ( + T5 22 ) T1 ) )
(or ( <= ( + T1 176 )  ( + T5 22 ) ) ( <= ( + T5 28 )( + T1 79 ) ) )
(or ( <= ( + T1 239 )  ( + T5 28 ) ) ( <= ( + T5 71 )( + T1 176 ) ) )
(or ( <= ( + T1 297 )  ( + T5 71 ) ) ( <= ( + T5 83 )( + T1 239 ) ) )
(or ( <= ( + T1 376 )  ( + T5 83 ) ) ( <= ( + T5 152 )( + T1 297 ) ) )
(or ( <= ( + T1 459 )  ( + T5 152 ) ) ( <= ( + T5 163 )( + T1 376 ) ) )
(or ( <= ( + T1 79 ) T6 ) ( <= ( + T6 80 ) T1 ) )
(or ( <= ( + T1 176 )  ( + T6 80 ) ) ( <= ( + T6 128 )( + T1 79 ) ) )
(or ( <= ( + T1 239 )  ( + T6 128 ) ) ( <= ( + T6 135 )( + T1 176 ) ) )
(or ( <= ( + T1 297 )  ( + T6 135 ) ) ( <= ( + T6 229 )( + T1 239 ) ) )
(or ( <= ( + T1 376 )  ( + T6 229 ) ) ( <= ( + T6 286 )( + T1 297 ) ) )
(or ( <= ( + T1 459 )  ( + T6 286 ) ) ( <= ( + T6 372 )( + T1 376 ) ) )
(or ( <= ( + T1 79 ) T7 ) ( <= ( + T7 76 ) T1 ) )
(or ( <= ( + T1 176 )  ( + T7 76 ) ) ( <= ( + T7 83 )( + T1 79 ) ) )
(or ( <= ( + T1 239 )  ( + T7 83 ) ) ( <= ( + T7 154 )( + T1 176 ) ) )
(or ( <= ( + T1 297 )  ( + T7 154 ) ) ( <= ( + T7 179 )( + T1 239 ) ) )
(or ( <= ( + T1 376 )  ( + T7 179 ) ) ( <= ( + T7 264 )( + T1 297 ) ) )
(or ( <= ( + T1 459 )  ( + T7 264 ) ) ( <= ( + T7 304 )( + T1 376 ) ) )
(or ( <= ( + T1 79 ) T8 ) ( <= ( + T8 13 ) T1 ) )
(or ( <= ( + T1 176 )  ( + T8 13 ) ) ( <= ( + T8 83 )( + T1 79 ) ) )
(or ( <= ( + T1 239 )  ( + T8 83 ) ) ( <= ( + T8 137 )( + T1 176 ) ) )
(or ( <= ( + T1 297 )  ( + T8 137 ) ) ( <= ( + T8 187 )( + T1 239 ) ) )
(or ( <= ( + T1 376 )  ( + T8 187 ) ) ( <= ( + T8 274 )( + T1 297 ) ) )
(or ( <= ( + T1 459 )  ( + T8 274 ) ) ( <= ( + T8 371 )( + T1 376 ) ) )
(or ( <= ( + T2 99 ) T3 ) ( <= ( + T3 86 ) T2 ) )
(or ( <= ( + T2 133 )  ( + T3 86 ) ) ( <= ( + T3 149 )( + T2 99 ) ) )
(or ( <= ( + T2 230 )  ( + T3 149 ) ) ( <= ( + T3 186 )( + T2 133 ) ) )
(or ( <= ( + T2 256 )  ( + T3 186 ) ) ( <= ( + T3 252 )( + T2 230 ) ) )
(or ( <= ( + T2 325 )  ( + T3 252 ) ) ( <= ( + T3 295 )( + T2 256 ) ) )
(or ( <= ( + T2 362 )  ( + T3 295 ) ) ( <= ( + T3 388 )( + T2 325 ) ) )
(or ( <= ( + T2 99 ) T4 ) ( <= ( + T4 37 ) T2 ) )
(or ( <= ( + T2 133 )  ( + T4 37 ) ) ( <= ( + T4 90 )( + T2 99 ) ) )
(or ( <= ( + T2 230 )  ( + T4 90 ) ) ( <= ( + T4 146 )( + T2 133 ) ) )
(or ( <= ( + T2 256 )  ( + T4 146 ) ) ( <= ( + T4 148 )( + T2 230 ) ) )
(or ( <= ( + T2 325 )  ( + T4 148 ) ) ( <= ( + T4 171 )( + T2 256 ) ) )
(or ( <= ( + T2 362 )  ( + T4 171 ) ) ( <= ( + T4 216 )( + T2 325 ) ) )
(or ( <= ( + T2 99 ) T5 ) ( <= ( + T5 22 ) T2 ) )
(or ( <= ( + T2 133 )  ( + T5 22 ) ) ( <= ( + T5 28 )( + T2 99 ) ) )
(or ( <= ( + T2 230 )  ( + T5 28 ) ) ( <= ( + T5 71 )( + T2 133 ) ) )
(or ( <= ( + T2 256 )  ( + T5 71 ) ) ( <= ( + T5 83 )( + T2 230 ) ) )
(or ( <= ( + T2 325 )  ( + T5 83 ) ) ( <= ( + T5 152 )( + T2 256 ) ) )
(or ( <= ( + T2 362 )  ( + T5 152 ) ) ( <= ( + T5 163 )( + T2 325 ) ) )
(or ( <= ( + T2 99 ) T6 ) ( <= ( + T6 80 ) T2 ) )
(or ( <= ( + T2 133 )  ( + T6 80 ) ) ( <= ( + T6 128 )( + T2 99 ) ) )
(or ( <= ( + T2 230 )  ( + T6 128 ) ) ( <= ( + T6 135 )( + T2 133 ) ) )
(or ( <= ( + T2 256 )  ( + T6 135 ) ) ( <= ( + T6 229 )( + T2 230 ) ) )
(or ( <= ( + T2 325 )  ( + T6 229 ) ) ( <= ( + T6 286 )( + T2 256 ) ) )
(or ( <= ( + T2 362 )  ( + T6 286 ) ) ( <= ( + T6 372 )( + T2 325 ) ) )
(or ( <= ( + T2 99 ) T7 ) ( <= ( + T7 76 ) T2 ) )
(or ( <= ( + T2 133 )  ( + T7 76 ) ) ( <= ( + T7 83 )( + T2 99 ) ) )
(or ( <= ( + T2 230 )  ( + T7 83 ) ) ( <= ( + T7 154 )( + T2 133 ) ) )
(or ( <= ( + T2 256 )  ( + T7 154 ) ) ( <= ( + T7 179 )( + T2 230 ) ) )
(or ( <= ( + T2 325 )  ( + T7 179 ) ) ( <= ( + T7 264 )( + T2 256 ) ) )
(or ( <= ( + T2 362 )  ( + T7 264 ) ) ( <= ( + T7 304 )( + T2 325 ) ) )
(or ( <= ( + T2 99 ) T8 ) ( <= ( + T8 13 ) T2 ) )
(or ( <= ( + T2 133 )  ( + T8 13 ) ) ( <= ( + T8 83 )( + T2 99 ) ) )
(or ( <= ( + T2 230 )  ( + T8 83 ) ) ( <= ( + T8 137 )( + T2 133 ) ) )
(or ( <= ( + T2 256 )  ( + T8 137 ) ) ( <= ( + T8 187 )( + T2 230 ) ) )
(or ( <= ( + T2 325 )  ( + T8 187 ) ) ( <= ( + T8 274 )( + T2 256 ) ) )
(or ( <= ( + T2 362 )  ( + T8 274 ) ) ( <= ( + T8 371 )( + T2 325 ) ) )
(or ( <= ( + T3 86 ) T4 ) ( <= ( + T4 37 ) T3 ) )
(or ( <= ( + T3 149 )  ( + T4 37 ) ) ( <= ( + T4 90 )( + T3 86 ) ) )
(or ( <= ( + T3 186 )  ( + T4 90 ) ) ( <= ( + T4 146 )( + T3 149 ) ) )
(or ( <= ( + T3 252 )  ( + T4 146 ) ) ( <= ( + T4 148 )( + T3 186 ) ) )
(or ( <= ( + T3 295 )  ( + T4 148 ) ) ( <= ( + T4 171 )( + T3 252 ) ) )
(or ( <= ( + T3 388 )  ( + T4 171 ) ) ( <= ( + T4 216 )( + T3 295 ) ) )
(or ( <= ( + T3 86 ) T5 ) ( <= ( + T5 22 ) T3 ) )
(or ( <= ( + T3 149 )  ( + T5 22 ) ) ( <= ( + T5 28 )( + T3 86 ) ) )
(or ( <= ( + T3 186 )  ( + T5 28 ) ) ( <= ( + T5 71 )( + T3 149 ) ) )
(or ( <= ( + T3 252 )  ( + T5 71 ) ) ( <= ( + T5 83 )( + T3 186 ) ) )
(or ( <= ( + T3 295 )  ( + T5 83 ) ) ( <= ( + T5 152 )( + T3 252 ) ) )
(or ( <= ( + T3 388 )  ( + T5 152 ) ) ( <= ( + T5 163 )( + T3 295 ) ) )
(or ( <= ( + T3 86 ) T6 ) ( <= ( + T6 80 ) T3 ) )
(or ( <= ( + T3 149 )  ( + T6 80 ) ) ( <= ( + T6 128 )( + T3 86 ) ) )
(or ( <= ( + T3 186 )  ( + T6 128 ) ) ( <= ( + T6 135 )( + T3 149 ) ) )
(or ( <= ( + T3 252 )  ( + T6 135 ) ) ( <= ( + T6 229 )( + T3 186 ) ) )
(or ( <= ( + T3 295 )  ( + T6 229 ) ) ( <= ( + T6 286 )( + T3 252 ) ) )
(or ( <= ( + T3 388 )  ( + T6 286 ) ) ( <= ( + T6 372 )( + T3 295 ) ) )
(or ( <= ( + T3 86 ) T7 ) ( <= ( + T7 76 ) T3 ) )
(or ( <= ( + T3 149 )  ( + T7 76 ) ) ( <= ( + T7 83 )( + T3 86 ) ) )
(or ( <= ( + T3 186 )  ( + T7 83 ) ) ( <= ( + T7 154 )( + T3 149 ) ) )
(or ( <= ( + T3 252 )  ( + T7 154 ) ) ( <= ( + T7 179 )( + T3 186 ) ) )
(or ( <= ( + T3 295 )  ( + T7 179 ) ) ( <= ( + T7 264 )( + T3 252 ) ) )
(or ( <= ( + T3 388 )  ( + T7 264 ) ) ( <= ( + T7 304 )( + T3 295 ) ) )
(or ( <= ( + T3 86 ) T8 ) ( <= ( + T8 13 ) T3 ) )
(or ( <= ( + T3 149 )  ( + T8 13 ) ) ( <= ( + T8 83 )( + T3 86 ) ) )
(or ( <= ( + T3 186 )  ( + T8 83 ) ) ( <= ( + T8 137 )( + T3 149 ) ) )
(or ( <= ( + T3 252 )  ( + T8 137 ) ) ( <= ( + T8 187 )( + T3 186 ) ) )
(or ( <= ( + T3 295 )  ( + T8 187 ) ) ( <= ( + T8 274 )( + T3 252 ) ) )
(or ( <= ( + T3 388 )  ( + T8 274 ) ) ( <= ( + T8 371 )( + T3 295 ) ) )
(or ( <= ( + T4 37 ) T5 ) ( <= ( + T5 22 ) T4 ) )
(or ( <= ( + T4 90 )  ( + T5 22 ) ) ( <= ( + T5 28 )( + T4 37 ) ) )
(or ( <= ( + T4 146 )  ( + T5 28 ) ) ( <= ( + T5 71 )( + T4 90 ) ) )
(or ( <= ( + T4 148 )  ( + T5 71 ) ) ( <= ( + T5 83 )( + T4 146 ) ) )
(or ( <= ( + T4 171 )  ( + T5 83 ) ) ( <= ( + T5 152 )( + T4 148 ) ) )
(or ( <= ( + T4 216 )  ( + T5 152 ) ) ( <= ( + T5 163 )( + T4 171 ) ) )
(or ( <= ( + T4 37 ) T6 ) ( <= ( + T6 80 ) T4 ) )
(or ( <= ( + T4 90 )  ( + T6 80 ) ) ( <= ( + T6 128 )( + T4 37 ) ) )
(or ( <= ( + T4 146 )  ( + T6 128 ) ) ( <= ( + T6 135 )( + T4 90 ) ) )
(or ( <= ( + T4 148 )  ( + T6 135 ) ) ( <= ( + T6 229 )( + T4 146 ) ) )
(or ( <= ( + T4 171 )  ( + T6 229 ) ) ( <= ( + T6 286 )( + T4 148 ) ) )
(or ( <= ( + T4 216 )  ( + T6 286 ) ) ( <= ( + T6 372 )( + T4 171 ) ) )
(or ( <= ( + T4 37 ) T7 ) ( <= ( + T7 76 ) T4 ) )
(or ( <= ( + T4 90 )  ( + T7 76 ) ) ( <= ( + T7 83 )( + T4 37 ) ) )
(or ( <= ( + T4 146 )  ( + T7 83 ) ) ( <= ( + T7 154 )( + T4 90 ) ) )
(or ( <= ( + T4 148 )  ( + T7 154 ) ) ( <= ( + T7 179 )( + T4 146 ) ) )
(or ( <= ( + T4 171 )  ( + T7 179 ) ) ( <= ( + T7 264 )( + T4 148 ) ) )
(or ( <= ( + T4 216 )  ( + T7 264 ) ) ( <= ( + T7 304 )( + T4 171 ) ) )
(or ( <= ( + T4 37 ) T8 ) ( <= ( + T8 13 ) T4 ) )
(or ( <= ( + T4 90 )  ( + T8 13 ) ) ( <= ( + T8 83 )( + T4 37 ) ) )
(or ( <= ( + T4 146 )  ( + T8 83 ) ) ( <= ( + T8 137 )( + T4 90 ) ) )
(or ( <= ( + T4 148 )  ( + T8 137 ) ) ( <= ( + T8 187 )( + T4 146 ) ) )
(or ( <= ( + T4 171 )  ( + T8 187 ) ) ( <= ( + T8 274 )( + T4 148 ) ) )
(or ( <= ( + T4 216 )  ( + T8 274 ) ) ( <= ( + T8 371 )( + T4 171 ) ) )
(or ( <= ( + T5 22 ) T6 ) ( <= ( + T6 80 ) T5 ) )
(or ( <= ( + T5 28 )  ( + T6 80 ) ) ( <= ( + T6 128 )( + T5 22 ) ) )
(or ( <= ( + T5 71 )  ( + T6 128 ) ) ( <= ( + T6 135 )( + T5 28 ) ) )
(or ( <= ( + T5 83 )  ( + T6 135 ) ) ( <= ( + T6 229 )( + T5 71 ) ) )
(or ( <= ( + T5 152 )  ( + T6 229 ) ) ( <= ( + T6 286 )( + T5 83 ) ) )
(or ( <= ( + T5 163 )  ( + T6 286 ) ) ( <= ( + T6 372 )( + T5 152 ) ) )
(or ( <= ( + T5 22 ) T7 ) ( <= ( + T7 76 ) T5 ) )
(or ( <= ( + T5 28 )  ( + T7 76 ) ) ( <= ( + T7 83 )( + T5 22 ) ) )
(or ( <= ( + T5 71 )  ( + T7 83 ) ) ( <= ( + T7 154 )( + T5 28 ) ) )
(or ( <= ( + T5 83 )  ( + T7 154 ) ) ( <= ( + T7 179 )( + T5 71 ) ) )
(or ( <= ( + T5 152 )  ( + T7 179 ) ) ( <= ( + T7 264 )( + T5 83 ) ) )
(or ( <= ( + T5 163 )  ( + T7 264 ) ) ( <= ( + T7 304 )( + T5 152 ) ) )
(or ( <= ( + T5 22 ) T8 ) ( <= ( + T8 13 ) T5 ) )
(or ( <= ( + T5 28 )  ( + T8 13 ) ) ( <= ( + T8 83 )( + T5 22 ) ) )
(or ( <= ( + T5 71 )  ( + T8 83 ) ) ( <= ( + T8 137 )( + T5 28 ) ) )
(or ( <= ( + T5 83 )  ( + T8 137 ) ) ( <= ( + T8 187 )( + T5 71 ) ) )
(or ( <= ( + T5 152 )  ( + T8 187 ) ) ( <= ( + T8 274 )( + T5 83 ) ) )
(or ( <= ( + T5 163 )  ( + T8 274 ) ) ( <= ( + T8 371 )( + T5 152 ) ) )
(or ( <= ( + T6 80 ) T7 ) ( <= ( + T7 76 ) T6 ) )
(or ( <= ( + T6 128 )  ( + T7 76 ) ) ( <= ( + T7 83 )( + T6 80 ) ) )
(or ( <= ( + T6 135 )  ( + T7 83 ) ) ( <= ( + T7 154 )( + T6 128 ) ) )
(or ( <= ( + T6 229 )  ( + T7 154 ) ) ( <= ( + T7 179 )( + T6 135 ) ) )
(or ( <= ( + T6 286 )  ( + T7 179 ) ) ( <= ( + T7 264 )( + T6 229 ) ) )
(or ( <= ( + T6 372 )  ( + T7 264 ) ) ( <= ( + T7 304 )( + T6 286 ) ) )
(or ( <= ( + T6 80 ) T8 ) ( <= ( + T8 13 ) T6 ) )
(or ( <= ( + T6 128 )  ( + T8 13 ) ) ( <= ( + T8 83 )( + T6 80 ) ) )
(or ( <= ( + T6 135 )  ( + T8 83 ) ) ( <= ( + T8 137 )( + T6 128 ) ) )
(or ( <= ( + T6 229 )  ( + T8 137 ) ) ( <= ( + T8 187 )( + T6 135 ) ) )
(or ( <= ( + T6 286 )  ( + T8 187 ) ) ( <= ( + T8 274 )( + T6 229 ) ) )
(or ( <= ( + T6 372 )  ( + T8 274 ) ) ( <= ( + T8 371 )( + T6 286 ) ) )
(or ( <= ( + T7 76 ) T8 ) ( <= ( + T8 13 ) T7 ) )
(or ( <= ( + T7 83 )  ( + T8 13 ) ) ( <= ( + T8 83 )( + T7 76 ) ) )
(or ( <= ( + T7 154 )  ( + T8 83 ) ) ( <= ( + T8 137 )( + T7 83 ) ) )
(or ( <= ( + T7 179 )  ( + T8 137 ) ) ( <= ( + T8 187 )( + T7 154 ) ) )
(or ( <= ( + T7 264 )  ( + T8 187 ) ) ( <= ( + T8 274 )( + T7 179 ) ) )
(or ( <= ( + T7 304 )  ( + T8 274 ) ) ( <= ( + T8 371 )( + T7 264 ) ) )
( <= ( + T1 459 ) Z)
( <= ( + T2 362 ) Z)
( <= ( + T3 388 ) Z)
( <= ( + T4 216 ) Z)
( <= ( + T5 163 ) Z)
( <= ( + T6 372 ) Z)
( <= ( + T7 304 ) Z)
( <= ( + T8 371 ) Z)
( >= T1 0 )
( >= T2 0 )
( >= T3 0 )
( >= T4 0 )
( >= T5 0 )
( >= T6 0 )
( >= T7 0 )
( >= T8 0 )
) )
)(=> $phi $goal))))